 # This is the geometry file from relaxed coordinates
 
lattice_vector     12.62890091      0.00000000      0.00000000
lattice_vector     -6.31445046     10.93694901      0.00000000
lattice_vector      0.00000000      0.00000000     30.00000000

atom      -7.60578185      4.54507246      8.87591323 C
atom      -6.64971389      4.02093477      8.92387498 H
atom      -1.29142224     -4.96154614      8.81814619 C
atom      -2.55135789     -4.27347049      8.75761873 C
atom      -0.08172732     -4.21179152      8.78050938 C
atom       0.87139768     -4.72847603      8.89575076 H
atom       4.19451045     -4.96072423      8.88498098 H
atom       5.12050944     -4.39473703      8.78037442 C
atom       6.36666795     -5.08416954      8.82192529 C
atom       7.59051828     -4.33400966      8.76166623 C
atom       8.85160533     -5.01541727      8.81194952 C
atom      -0.80517612      3.85411031      8.93380166 H
atom       0.12320323      4.42539292      8.88320303 C
atom       1.34305977      3.77241798      8.91888529 C
atom       1.37466514      2.68215618      8.97350901 H
atom       2.57271971      4.49119528      8.88534535 C
atom       3.83760604      3.83318331      8.91364647 C
atom       3.86033879      2.74242457      8.96732861 H
atom      -3.87402410     -1.08275985      8.71035428 H
atom      -3.84785843     -2.16934889      8.60360684 C
atom      -2.59078116     -2.83224613      8.69302158 C
atom      -1.36757880     -1.02933313      8.74000141 H
atom      -1.35190186     -2.11840985      8.67304076 C
atom      -0.13171090     -2.80904169      8.76081689 C
atom       0.79751312     -2.23624016      8.81237663 H
atom       4.14258458     -2.46879738      8.82486551 H
atom       5.10011323     -2.99221991      8.77180366 C
atom       6.24679416     -1.15261155      8.76875970 H
atom       6.28551187     -2.24046882      8.69216566 C
atom       7.55662196     -2.89248587      8.70114256 C



#########

atom       0.00400514      0.01253892      6.21224927 Cu
atom       2.52679179      0.00036163      6.22493999 Cu
atom       5.05002316      0.00885095      6.21502997 Cu
atom      -5.05180495      0.01402295      6.21182559 Cu
atom      -2.52572095      0.01742193      6.21004858 Cu
atom      -1.26613730      2.18414413      6.21934612 Cu
atom       1.26466361      2.17874683      6.21123938 Cu
atom       3.79015955      2.17747217      6.21054607 Cu
atom      -6.30985115      2.18284816      6.21957784 Cu
atom      -3.78880259      2.18680743      6.23042945 Cu
atom      -2.53483640      4.36329128      6.21863145 Cu
atom      -0.00500165      4.35774387      6.22527628 Cu
atom       2.52854481      4.35899686      6.18939781 Cu
atom      -7.56902064      4.35986478      6.22988518 Cu
atom      -5.04262551      4.36501099      6.21935143 Cu
atom       2.52427199     -4.38405345      6.21071668 Cu
atom       5.03183298     -4.38634057      6.25147696 Cu
atom       7.57616035     -4.38532751      6.17547776 Cu
atom      -2.52475800     -4.38089357      6.17563176 Cu
atom       0.01730067     -4.38014580      6.24946596 Cu
atom       1.27577913     -2.18272646      6.20210095 Cu
atom       3.77637365     -2.18405569      6.20372970 Cu
atom       6.29845844     -2.17484544      6.24466670 Cu
atom      -3.79067657     -2.17310609      6.24957066 Cu
atom      -1.24860123     -2.16652699      6.24493111 Cu
atom       1.26435012      0.72629043      4.13852810 Cu
atom       3.78901706      0.72597485      4.13872420 Cu
atom      -6.31474181      0.72721863      4.14033455 Cu
atom      -3.78894070      0.72777924      4.14094239 Cu
atom      -1.26224178      0.72745819      4.13954631 Cu
atom      -0.00073786      2.91545456      4.14577536 Cu
atom       2.52665002      2.91142321      4.14039903 Cu
atom      -7.57531551      2.91646052      4.14689723 Cu
atom      -5.05067627      2.91416244      4.14449299 Cu
atom      -2.52631441      2.91389307      4.14427365 Cu
atom      -1.26192242      5.10526713      4.15944211 Cu
atom       1.26023435      5.09939707      4.14359847 Cu
atom      -8.83565241      5.10037151      4.14462673 Cu
atom      -6.31533506      5.10627850      4.16027437 Cu
atom      -3.78857772      5.10146664      4.14097767 Cu
atom       3.79073190     -3.64888183      4.14884930 Cu
atom       6.30361826     -3.64228287      4.16492851 Cu
atom      -3.78910049     -3.63815144      4.14649485 Cu
atom      -1.25260710     -3.63982169      4.16494985 Cu
atom       1.26094593     -3.64818758      4.14765594 Cu
atom       2.52640938     -1.45743912      4.13632597 Cu
atom       5.05542592     -1.46000484      4.14874244 Cu
atom      -5.05189744     -1.46431756      4.16246332 Cu
atom      -2.52642120     -1.46377230      4.16265860 Cu
atom      -0.00349005     -1.45924937      4.14833846 Cu
atom       0.00000000      1.45826300      2.06229531 Cu
  constrain_relaxation .true.
atom       2.52578560      1.45826300      2.06229531 Cu
  constrain_relaxation .true.
atom       5.05157121      1.45826300      2.06229531 Cu
  constrain_relaxation .true.
atom      -5.05154410      1.45826300      2.06229531 Cu
  constrain_relaxation .true.
atom      -2.52575849      1.45826300      2.06229531 Cu
  constrain_relaxation .true.
atom      -1.26289280      3.64565750      2.06229531 Cu
  constrain_relaxation .true.
atom       1.26289280      3.64565750      2.06229531 Cu
  constrain_relaxation .true.
atom       3.78867841      3.64565750      2.06229531 Cu
  constrain_relaxation .true.
atom      -6.31443690      3.64565750      2.06229531 Cu
  constrain_relaxation .true.
atom      -3.78865129      3.64565750      2.06229531 Cu
  constrain_relaxation .true.
atom       3.78866486     -5.10389701      2.06229531 Cu
  constrain_relaxation .true.
atom       6.31445046     -5.10389701      2.06229531 Cu
  constrain_relaxation .true.
atom       8.84023606     -5.10389701      2.06229531 Cu
  constrain_relaxation .true.
atom      -1.26287924     -5.10389701      2.06229531 Cu
  constrain_relaxation .true.
atom       1.26290636     -5.10389701      2.06229531 Cu
  constrain_relaxation .true.
atom       2.52577205     -2.91650252      2.06229531 Cu
  constrain_relaxation .true.
atom       5.05155766     -2.91650252      2.06229531 Cu
  constrain_relaxation .true.
atom       7.57734326     -2.91650252      2.06229531 Cu
  constrain_relaxation .true.
atom      -2.52577204     -2.91650252      2.06229531 Cu
  constrain_relaxation .true.
atom       0.00001356     -2.91650252      2.06229531 Cu
  constrain_relaxation .true.
atom       1.26287925     -0.72910802      2.06229531 Cu
  constrain_relaxation .true.
atom       3.78866486     -0.72910802      2.06229531 Cu
  constrain_relaxation .true.
atom       6.31445046     -0.72910802      2.06229531 Cu
  constrain_relaxation .true.
atom      -3.78866485     -0.72910802      2.06229531 Cu
  constrain_relaxation .true.
atom      -1.26287924     -0.72910802      2.06229531 Cu
  constrain_relaxation .true.
atom       0.00000000      0.00000000      0.00000000 Cu
  constrain_relaxation .true.
atom       2.52578560      0.00000000      0.00000000 Cu
  constrain_relaxation .true.
atom       5.05157121      0.00000000      0.00000000 Cu
  constrain_relaxation .true.
atom      -5.05154410      0.00000000      0.00000000 Cu
  constrain_relaxation .true.
atom      -2.52575849      0.00000000      0.00000000 Cu
  constrain_relaxation .true.
atom      -1.26289280      2.18739450      0.00000000 Cu
  constrain_relaxation .true.
atom       1.26289280      2.18739450      0.00000000 Cu
  constrain_relaxation .true.
atom       3.78867841      2.18739450      0.00000000 Cu
  constrain_relaxation .true.
atom      -6.31443690      2.18739450      0.00000000 Cu
  constrain_relaxation .true.
atom      -3.78865129      2.18739450      0.00000000 Cu
  constrain_relaxation .true.
atom      -2.52578560      4.37478900      0.00000000 Cu
  constrain_relaxation .true.
atom       0.00000000      4.37478900      0.00000000 Cu
  constrain_relaxation .true.
atom       2.52578560      4.37478900      0.00000000 Cu
  constrain_relaxation .true.
atom      -7.57732970      4.37478900      0.00000000 Cu
  constrain_relaxation .true.
atom      -5.05154410      4.37478900      0.00000000 Cu
  constrain_relaxation .true.
atom       2.52577205     -4.37476552      0.00000000 Cu
  constrain_relaxation .true.
atom       5.05155766     -4.37476552      0.00000000 Cu
  constrain_relaxation .true.
atom       7.57734326     -4.37476552      0.00000000 Cu
  constrain_relaxation .true.
atom      -2.52577204     -4.37476552      0.00000000 Cu
  constrain_relaxation .true.
atom       0.00001356     -4.37476552      0.00000000 Cu
  constrain_relaxation .true.
atom       1.26287925     -2.18737102      0.00000000 Cu
  constrain_relaxation .true.
atom       3.78866486     -2.18737102      0.00000000 Cu
  constrain_relaxation .true.
atom       6.31445046     -2.18737102      0.00000000 Cu
  constrain_relaxation .true.
atom      -3.78866485     -2.18737102      0.00000000 Cu
  constrain_relaxation .true.
atom      -1.26287924     -2.18737102      0.00000000 Cu
  constrain_relaxation .true.
