  lattice_vector        11.25430081        0.00000000        0.00000000
  lattice_vector        -5.62715041        9.74651041        0.00000000
  lattice_vector         0.00000000        0.00000000       40.00000000

            atom         0.93293696        3.00503019       14.68918427  C
            atom         2.16616499        2.31409042       14.68444554  C
            atom         0.90231122        4.32927263       14.69013304  N
            atom         3.31182163        2.97895416       14.68106573  N
            atom         7.67488967       -4.75233367       14.68922391  C
            atom        -7.97326794        4.30333887       14.68455229  C
            atom        -0.58863266        2.16634914       14.73304280  Cl
            atom         2.24441448        0.57813636       14.72316875  Cl
            atom        -3.65828430       -3.01662353       14.73175121  Cl
            atom        -0.82482550       -4.60365203       14.72456757  Cl
            atom         0.00440368       -0.00485129       11.50651000  Pt
            atom         2.81919180       -0.00800557       11.50880985  Pt
            atom        -5.62207267       -0.00050584       11.51144734  Pt
            atom        -2.80993164       -0.00281101       11.51023312  Pt
            atom        -1.40237284        2.43282519       11.51050871  Pt
            atom         1.41219745        2.43222484       11.48195776  Pt
            atom        -7.03450135        2.43627477       11.51053620  Pt
            atom        -4.21821360        2.43055479       11.51066872  Pt
            atom        -2.80713688        4.86939880       11.51144160  Pt
            atom         0.00454956        4.86991915       11.50835337  Pt
            atom        -8.43470399        4.86949651       11.48166513  Pt
            atom        -5.61812034        4.87070923       11.50873851  Pt
            atom         1.41207698       -2.44061769       11.51206144  Pt
            atom         4.22690584       -2.44103247       11.51228498  Pt
            atom        -4.21500937       -2.43943825       11.51038392  Pt
            atom        -1.40097595       -2.43914267       11.50620815  Pt
            atom         1.40953904        0.80529989        9.18124014  Pt
            atom         4.22308509        0.80878170        9.18836783  Pt
            atom        -4.21734607        0.81013159        9.18767344  Pt
            atom        -1.40423089        0.81168436        9.18698387  Pt
            atom        -0.00085229        3.24933973        9.18196325  Pt
            atom         2.82071468        3.24443733        9.17735154  Pt
            atom        -5.62324382        3.24732452        9.18828059  Pt
            atom        -2.81170828        3.24654185        9.18904753  Pt
            atom         4.22043644       -4.06116434        9.18784423  Pt
            atom         7.03246493       -4.06085820        9.18199437  Pt
            atom        -1.39948661       -4.06032454        9.18127718  Pt
            atom         1.41014488       -4.06268056        9.18748313  Pt
            atom         2.81679100       -1.62661443        9.18768693  Pt
            atom         5.62985441       -1.62560195        9.18909585  Pt
            atom        -2.81215009       -1.62686079        9.18699991  Pt
            atom         0.00286832       -1.62659009        9.18643408  Pt
            atom         0.00000000        1.62442007        6.89183066  Pt
  constrain_relaxation .true.
            atom         2.81357809        1.62442007        6.89183066  Pt
  constrain_relaxation .true.
            atom        -5.62714464        1.62442007        6.89183066  Pt
  constrain_relaxation .true.
            atom        -2.81356655        1.62442007        6.89183066  Pt
  constrain_relaxation .true.
            atom        -1.40678904        4.06105016        6.89183066  Pt
  constrain_relaxation .true.
            atom         1.40678904        4.06105016        6.89183066  Pt
  constrain_relaxation .true.
            atom        -7.03393368        4.06105016        6.89183066  Pt
  constrain_relaxation .true.
            atom        -4.22035560        4.06105016        6.89183066  Pt
  constrain_relaxation .true.
            atom         2.81357232       -3.24883015        6.89183066  Pt
  constrain_relaxation .true.
            atom         5.62715041       -3.24883015        6.89183066  Pt
  constrain_relaxation .true.
            atom        -2.81357231       -3.24883015        6.89183066  Pt
  constrain_relaxation .true.
            atom         0.00000577       -3.24883015        6.89183066  Pt
  constrain_relaxation .true.
            atom         1.40678328       -0.81220005        6.89183066  Pt
  constrain_relaxation .true.
            atom         4.22036137       -0.81220005        6.89183066  Pt
  constrain_relaxation .true.
            atom        -4.22036136       -0.81220005        6.89183066  Pt
  constrain_relaxation .true.
            atom        -1.40678327       -0.81220005        6.89183066  Pt
  constrain_relaxation .true.
            atom         0.00000000        0.00000000        4.59455377  Pt
  constrain_relaxation .true.
            atom         2.81357809        0.00000000        4.59455377  Pt
  constrain_relaxation .true.
            atom        -5.62714464        0.00000000        4.59455377  Pt
  constrain_relaxation .true.
            atom        -2.81356655        0.00000000        4.59455377  Pt
  constrain_relaxation .true.
            atom        -1.40678904        2.43663010        4.59455377  Pt
  constrain_relaxation .true.
            atom         1.40678904        2.43663010        4.59455377  Pt
  constrain_relaxation .true.
            atom        -7.03393368        2.43663010        4.59455377  Pt
  constrain_relaxation .true.
            atom        -4.22035560        2.43663010        4.59455377  Pt
  constrain_relaxation .true.
            atom         2.81357232       -4.87325022        4.59455377  Pt
  constrain_relaxation .true.
            atom         5.62715041       -4.87325022        4.59455377  Pt
  constrain_relaxation .true.
            atom        -2.81357231       -4.87325022        4.59455377  Pt
  constrain_relaxation .true.
            atom         0.00000577       -4.87325022        4.59455377  Pt
  constrain_relaxation .true.
            atom         1.40678328       -2.43662012        4.59455377  Pt
  constrain_relaxation .true.
            atom         4.22036137       -2.43662012        4.59455377  Pt
  constrain_relaxation .true.
            atom        -4.22036136       -2.43662012        4.59455377  Pt
  constrain_relaxation .true.
            atom        -1.40678327       -2.43662012        4.59455377  Pt
  constrain_relaxation .true.
