#=======================================#
# interpolation/image007.in
#=======================================#
lattice_vector 12.6289009100000005 0.0000000000000000 0.0000000000000000 
lattice_vector -6.3144504599999998 10.9369490099999993 0.0000000000000000 
lattice_vector 0.0000000000000000 0.0000000000000000 30.0000000000000000 
atom -7.6057818499999996 4.5450724600000001 8.8759132300000001 C
atom -6.6497138900000001 4.0209347700000002 8.9238749800000008 H
atom -7.6058726999999999 5.9754028699999990 8.8181461900000002 C
atom -8.8658083500000000 6.6634785199999991 8.7576187300000008 C
atom -6.3961777799999995 6.7251574899999991 8.7805093799999998 C
atom -5.4430527799999995 6.2084729799999989 8.8957507600000003 H
atom -2.1199400099999997 5.9762247799999990 8.8849809799999999 H
atom -1.1939410199999996 6.5422119799999994 8.7803744199999993 C
atom 0.0522174900000003 5.8527794699999989 8.8219252899999994 C
atom 1.2760678200000006 6.6029393499999989 8.7616662299999994 C
atom 2.5371548700000002 5.9215317399999989 8.8119495200000006 C
atom -0.8051761200000001 3.8541103099999998 8.9338016600000003 H
atom 0.1232032300000000 4.4253929200000002 8.8832030300000007 C
atom 1.3430597700000000 3.7724179800000002 8.9188852900000004 C
atom 1.3746651400000001 2.6821561799999998 8.9735090100000008 H
atom 2.5727197099999999 4.4911952800000003 8.8853453499999997 C
atom 3.8376060399999998 3.8331833099999999 8.9136464699999998 C
atom 3.8603387900000001 2.7424245699999998 8.9673286099999991 H
atom -3.8740241000000002 -1.0827598500000000 8.7103542800000007 H
atom -3.8478584300000001 -2.1693488900000002 8.6036068399999994 C
atom -2.5907811600000001 -2.8322461300000001 8.6930215799999999 C
atom -1.3675788000000000 -1.0293331299999999 8.7400014099999996 H
atom -1.3519018599999999 -2.1184098499999999 8.6730407599999992 C
atom -0.1317109000000000 -2.8090416899999999 8.7608168899999992 C
atom 0.7975131200000000 -2.2362401599999999 8.8123766299999993 H
atom 4.1425845800000003 -2.4687973799999998 8.8248655100000004 H
atom 5.1001132299999998 -2.9922199100000002 8.7718036599999998 C
atom 6.2467941600000003 -1.1526115500000000 8.7687597000000004 H
atom 6.2855118699999997 -2.2404688199999998 8.6921656600000006 C
atom 7.5566219600000002 -2.8924858699999998 8.7011425599999992 C
atom 0.0040051400000000 0.0125389200000000 6.2122492700000000 Cu
atom 2.5267917899999999 0.0003616300000000 6.2249399900000002 Cu
atom 5.0500231600000003 0.0088509500000000 6.2150299699999998 Cu
atom -5.0518049500000002 0.0140229500000000 6.2118255900000001 Cu
atom -2.5257209500000002 0.0174219300000000 6.2100485799999996 Cu
atom -1.2661373000000000 2.1841441300000000 6.2193461200000000 Cu
atom 1.2646636099999999 2.1787468300000001 6.2112393800000003 Cu
atom 3.7901595499999998 2.1774721700000002 6.2105460700000004 Cu
atom -6.3098511500000001 2.1828481599999998 6.2195778400000004 Cu
atom -3.7888025900000000 2.1868074300000000 6.2304294499999999 Cu
atom -2.5348364000000001 4.3632912800000003 6.2186314500000002 Cu
atom -0.0050016500000000 4.3577438700000002 6.2252762800000001 Cu
atom 2.5285448100000001 4.3589968600000004 6.1893978100000000 Cu
atom -7.5690206399999997 4.3598647799999997 6.2298851800000001 Cu
atom -5.0426255099999997 4.3650109900000000 6.2193514299999997 Cu
atom 2.5242719899999999 -4.3840534499999997 6.2107166800000000 Cu
atom 5.0318329799999999 -4.3863405699999998 6.2514769599999997 Cu
atom 7.5761603500000003 -4.3853275099999998 6.1754777599999997 Cu
atom -2.5247579999999998 -4.3808935699999996 6.1756317599999999 Cu
atom 0.0173006700000000 -4.3801458000000002 6.2494659600000002 Cu
atom 1.2757791300000001 -2.1827264600000000 6.2021009500000002 Cu
atom 3.7763736500000000 -2.1840556900000001 6.2037297000000002 Cu
atom 6.2984584400000001 -2.1748454399999999 6.2446666999999998 Cu
atom -3.7906765700000000 -2.1731060900000001 6.2495706599999998 Cu
atom -1.2486012300000000 -2.1665269899999999 6.2449311099999996 Cu
atom 1.2643501200000000 0.7262904300000000 4.1385281000000003 Cu
atom 3.7890170599999999 0.7259748499999999 4.1387242000000004 Cu
atom -6.3147418100000001 0.7272186300000000 4.1403345500000004 Cu
atom -3.7889406999999999 0.7277792400000000 4.1409423900000002 Cu
atom -1.2622417800000001 0.7274581900000000 4.1395463100000001 Cu
atom -0.0007378600000000 2.9154545600000001 4.1457753600000000 Cu
atom 2.5266500199999999 2.9114232100000002 4.1403990300000002 Cu
atom -7.5753155100000003 2.9164605199999998 4.1468972300000004 Cu
atom -5.0506762700000003 2.9141624400000001 4.1444929899999998 Cu
atom -2.5263144099999999 2.9138930699999999 4.1442736499999997 Cu
atom -1.2619224200000001 5.1052671299999997 4.1594421099999996 Cu
atom 1.2602343499999999 5.0993970700000002 4.1435984699999997 Cu
atom -8.8356524099999998 5.1003715100000004 4.1446267299999997 Cu
atom -6.3153350599999998 5.1062785000000002 4.1602743699999998 Cu
atom -3.7885777200000001 5.1014666399999999 4.1409776699999998 Cu
atom 3.7907318999999999 -3.6488818300000001 4.1488493000000002 Cu
atom 6.3036182600000004 -3.6422828699999998 4.1649285100000002 Cu
atom -3.7891004900000000 -3.6381514400000001 4.1464948499999998 Cu
atom -1.2526071000000001 -3.6398216900000002 4.1649498500000002 Cu
atom 1.2609459300000001 -3.6481875800000001 4.1476559399999999 Cu
atom 2.5264093800000000 -1.4574391200000001 4.1363259699999997 Cu
atom 5.0554259200000002 -1.4600048400000001 4.1487424400000004 Cu
atom -5.0518974400000003 -1.4643175600000000 4.1624633199999996 Cu
atom -2.5264212000000001 -1.4637723000000000 4.1626586000000003 Cu
atom -0.0034900500000000 -1.4592493700000000 4.1483384599999997 Cu
atom 0.0000000000000000 1.4582630000000001 2.0622953100000001 Cu
constrain_relaxation .true.
atom 2.5257855999999999 1.4582630000000001 2.0622953100000001 Cu
constrain_relaxation .true.
atom 5.0515712099999996 1.4582630000000001 2.0622953100000001 Cu
constrain_relaxation .true.
atom -5.0515441000000001 1.4582630000000001 2.0622953100000001 Cu
constrain_relaxation .true.
atom -2.5257584899999999 1.4582630000000001 2.0622953100000001 Cu
constrain_relaxation .true.
atom -1.2628927999999999 3.6456575000000000 2.0622953100000001 Cu
constrain_relaxation .true.
atom 1.2628927999999999 3.6456575000000000 2.0622953100000001 Cu
constrain_relaxation .true.
atom 3.7886784100000002 3.6456575000000000 2.0622953100000001 Cu
constrain_relaxation .true.
atom -6.3144368999999996 3.6456575000000000 2.0622953100000001 Cu
constrain_relaxation .true.
atom -3.7886512899999998 3.6456575000000000 2.0622953100000001 Cu
constrain_relaxation .true.
atom 3.7886648599999999 -5.1038970099999998 2.0622953100000001 Cu
constrain_relaxation .true.
atom 6.3144504599999998 -5.1038970099999998 2.0622953100000001 Cu
constrain_relaxation .true.
atom 8.8402360600000005 -5.1038970099999998 2.0622953100000001 Cu
constrain_relaxation .true.
atom -1.2628792400000000 -5.1038970099999998 2.0622953100000001 Cu
constrain_relaxation .true.
atom 1.2629063599999999 -5.1038970099999998 2.0622953100000001 Cu
constrain_relaxation .true.
atom 2.5257720500000000 -2.9165025199999999 2.0622953100000001 Cu
constrain_relaxation .true.
atom 5.0515576600000003 -2.9165025199999999 2.0622953100000001 Cu
constrain_relaxation .true.
atom 7.5773432600000001 -2.9165025199999999 2.0622953100000001 Cu
constrain_relaxation .true.
atom -2.5257720400000001 -2.9165025199999999 2.0622953100000001 Cu
constrain_relaxation .true.
atom 0.0000135600000000 -2.9165025199999999 2.0622953100000001 Cu
constrain_relaxation .true.
atom 1.2628792499999999 -0.7291080200000000 2.0622953100000001 Cu
constrain_relaxation .true.
atom 3.7886648599999999 -0.7291080200000000 2.0622953100000001 Cu
constrain_relaxation .true.
atom 6.3144504599999998 -0.7291080200000000 2.0622953100000001 Cu
constrain_relaxation .true.
atom -3.7886648500000000 -0.7291080200000000 2.0622953100000001 Cu
constrain_relaxation .true.
atom -1.2628792400000000 -0.7291080200000000 2.0622953100000001 Cu
constrain_relaxation .true.
atom 0.0000000000000000 0.0000000000000000 0.0000000000000000 Cu
constrain_relaxation .true.
atom 2.5257855999999999 0.0000000000000000 0.0000000000000000 Cu
constrain_relaxation .true.
atom 5.0515712099999996 0.0000000000000000 0.0000000000000000 Cu
constrain_relaxation .true.
atom -5.0515441000000001 0.0000000000000000 0.0000000000000000 Cu
constrain_relaxation .true.
atom -2.5257584899999999 0.0000000000000000 0.0000000000000000 Cu
constrain_relaxation .true.
atom -1.2628927999999999 2.1873944999999999 0.0000000000000000 Cu
constrain_relaxation .true.
atom 1.2628927999999999 2.1873944999999999 0.0000000000000000 Cu
constrain_relaxation .true.
atom 3.7886784100000002 2.1873944999999999 0.0000000000000000 Cu
constrain_relaxation .true.
atom -6.3144368999999996 2.1873944999999999 0.0000000000000000 Cu
constrain_relaxation .true.
atom -3.7886512899999998 2.1873944999999999 0.0000000000000000 Cu
constrain_relaxation .true.
atom -2.5257855999999999 4.3747889999999998 0.0000000000000000 Cu
constrain_relaxation .true.
atom 0.0000000000000000 4.3747889999999998 0.0000000000000000 Cu
constrain_relaxation .true.
atom 2.5257855999999999 4.3747889999999998 0.0000000000000000 Cu
constrain_relaxation .true.
atom -7.5773296999999999 4.3747889999999998 0.0000000000000000 Cu
constrain_relaxation .true.
atom -5.0515441000000001 4.3747889999999998 0.0000000000000000 Cu
constrain_relaxation .true.
atom 2.5257720500000000 -4.3747655200000004 0.0000000000000000 Cu
constrain_relaxation .true.
atom 5.0515576600000003 -4.3747655200000004 0.0000000000000000 Cu
constrain_relaxation .true.
atom 7.5773432600000001 -4.3747655200000004 0.0000000000000000 Cu
constrain_relaxation .true.
atom -2.5257720400000001 -4.3747655200000004 0.0000000000000000 Cu
constrain_relaxation .true.
atom 0.0000135600000000 -4.3747655200000004 0.0000000000000000 Cu
constrain_relaxation .true.
atom 1.2628792499999999 -2.1873710200000001 0.0000000000000000 Cu
constrain_relaxation .true.
atom 3.7886648599999999 -2.1873710200000001 0.0000000000000000 Cu
constrain_relaxation .true.
atom 6.3144504599999998 -2.1873710200000001 0.0000000000000000 Cu
constrain_relaxation .true.
atom -3.7886648500000000 -2.1873710200000001 0.0000000000000000 Cu
constrain_relaxation .true.
atom -1.2628792400000000 -2.1873710200000001 0.0000000000000000 Cu
constrain_relaxation .true.
