 # This is the geometry file from relaxed coordinates
lattice_vector     12.62890091      0.00000000      0.00000000
lattice_vector     -6.31445046     10.93694901      0.00000000
lattice_vector      0.00000000      0.00000000     30.00000000

atom      -7.60983654      2.96122234      8.93334438 C
atom      -6.65306535      2.43469352      8.94777576 H
atom      -7.60601840      4.39231263      8.89707352 C
atom      -8.86470789      5.08107342      8.88219742 C
atom      -6.39796191      5.14374516      8.87043197 C
atom      -5.44157857      4.62086950      8.92389509 H
atom      -2.11529748      4.39423762      8.92126116 H
atom      -1.18613516      4.96398386      8.86466339 C
atom       0.05668801      4.27275853      8.88883111 C
atom       1.28064038      5.02138030      8.87741621 C
atom       2.53969716      4.33813386      8.90648496 C
atom      -0.79914594      2.27006297      8.93219881 H
atom       0.13080218      2.84278706      8.92114098 C
atom       1.34612866      2.18489682      8.95294345 C
atom       1.37556456      1.09431269      8.98670246 H
atom       2.57488198      2.90544850      8.95511999 C
atom       3.83648959      2.24540438      8.96218458 C
atom       3.85977482      1.15472322      8.99763649 H
atom      -3.87100949     -2.66528043      8.81884141 H
atom      -3.84442620     -3.75696728      8.78811121 C
atom      -2.58765620     -4.41494772      8.82870705 C
atom      -1.36269020     -2.61398814      8.84755886 H
atom      -1.34848287     -3.70541833      8.81877847 C
atom      -0.12574200     -4.39126788      8.84933804 C
atom       0.80474629     -3.82191606      8.88393790 H
atom       4.14358018     -4.04757867      8.88448660 H
atom       5.10126613     -4.56953384      8.84623343 C
atom       6.24927019     -2.73466435      8.84368314 H
atom       6.28831291     -3.82520271      8.81413251 C
atom       7.56187952     -4.47433987      8.82470173 C

########


atom      -0.00107579     -0.00761911      6.21960722 Cu
atom       2.52646954     -0.00849702      6.21822612 Cu
atom       5.05247060     -0.00537796      6.22095417 Cu
atom      -5.05235598      0.00209223      6.22843694 Cu
atom      -2.52529607      0.00075396      6.22805070 Cu
atom      -1.26861126      2.17814106      6.20978661 Cu
atom       1.25881545      2.17168868      6.22985741 Cu
atom       3.79386668      2.17455693      6.22718520 Cu
atom      -6.30843355      2.18136111      6.21225021 Cu
atom      -3.78820981      2.18830487      6.23006166 Cu
atom      -2.52855574      4.37355302      6.22278801 Cu
atom      -0.00326171      4.36626166      6.19604614 Cu
atom       2.52638352      4.37030185      6.18387334 Cu
atom      -7.57208373      4.36982576      6.19678341 Cu
atom      -5.04536095      4.37445309      6.22163085 Cu
atom       2.52695688     -4.37133937      6.21413669 Cu
atom       5.04788681     -4.36983088      6.25304567 Cu
atom       7.58092112     -4.36394030      6.21490162 Cu
atom      -2.52979230     -4.36385440      6.20995008 Cu
atom       0.00656747     -4.37061083      6.25189597 Cu
atom       1.26888022     -2.18337867      6.21999513 Cu
atom       3.78431741     -2.18307065      6.22084568 Cu
atom       6.30992641     -2.17710111      6.21279318 Cu
atom      -3.78998581     -2.17479483      6.20666173 Cu
atom      -1.25865195     -2.17959901      6.21353018 Cu
atom       1.26285800      0.72771924      4.14863751 Cu
atom       3.78924208      0.72797643      4.14867645 Cu
atom      -6.31501221      0.72722706      4.14456929 Cu
atom      -3.78863968      0.72869780      4.14680049 Cu
atom      -1.26227943      0.72604645      4.14357982 Cu
atom       0.00258963      2.91361970      4.14796001 Cu
atom       2.52567061      2.91099272      4.15350556 Cu
atom      -7.57888367      2.91473524      4.14778539 Cu
atom      -5.05177293      2.91768765      4.14757615 Cu
atom      -2.52479965      2.91746261      4.14733469 Cu
atom      -1.26422164      5.10930887      4.15471072 Cu
atom       1.26130769      5.10728440      4.14723101 Cu
atom      -8.83857297      5.10679071      4.14621175 Cu
atom      -6.31227419      5.10940843      4.15404916 Cu
atom      -3.78769248      5.10435243      4.14563107 Cu
atom       3.79245155     -3.64663139      4.15217176 Cu
atom       6.31097865     -3.64809934      4.15760613 Cu
atom      -3.78909674     -3.64527141      4.14586278 Cu
atom      -1.25858428     -3.64826103      4.15689358 Cu
atom       1.26012565     -3.64663967      4.15168609 Cu
atom       2.52619623     -1.46021379      4.13752074 Cu
atom       5.04922340     -1.45944274      4.14156458 Cu
atom      -5.05370775     -1.45887466      4.14399357 Cu
atom      -2.52384495     -1.45975010      4.14473971 Cu
atom       0.00252677     -1.46015692      4.14184752 Cu
atom       0.00000000      1.45826300      2.06229531 Cu
  constrain_relaxation .true.
atom       2.52578560      1.45826300      2.06229531 Cu
  constrain_relaxation .true.
atom       5.05157121      1.45826300      2.06229531 Cu
  constrain_relaxation .true.
atom      -5.05154410      1.45826300      2.06229531 Cu
  constrain_relaxation .true.
atom      -2.52575849      1.45826300      2.06229531 Cu
  constrain_relaxation .true.
atom      -1.26289280      3.64565750      2.06229531 Cu
  constrain_relaxation .true.
atom       1.26289280      3.64565750      2.06229531 Cu
  constrain_relaxation .true.
atom       3.78867841      3.64565750      2.06229531 Cu
  constrain_relaxation .true.
atom      -6.31443690      3.64565750      2.06229531 Cu
  constrain_relaxation .true.
atom      -3.78865129      3.64565750      2.06229531 Cu
  constrain_relaxation .true.
atom       3.78866486     -5.10389701      2.06229531 Cu
  constrain_relaxation .true.
atom       6.31445046     -5.10389701      2.06229531 Cu
  constrain_relaxation .true.
atom       8.84023606     -5.10389701      2.06229531 Cu
  constrain_relaxation .true.
atom      -1.26287924     -5.10389701      2.06229531 Cu
  constrain_relaxation .true.
atom       1.26290636     -5.10389701      2.06229531 Cu
  constrain_relaxation .true.
atom       2.52577205     -2.91650252      2.06229531 Cu
  constrain_relaxation .true.
atom       5.05155766     -2.91650252      2.06229531 Cu
  constrain_relaxation .true.
atom       7.57734326     -2.91650252      2.06229531 Cu
  constrain_relaxation .true.
atom      -2.52577204     -2.91650252      2.06229531 Cu
  constrain_relaxation .true.
atom       0.00001356     -2.91650252      2.06229531 Cu
  constrain_relaxation .true.
atom       1.26287925     -0.72910802      2.06229531 Cu
  constrain_relaxation .true.
atom       3.78866486     -0.72910802      2.06229531 Cu
  constrain_relaxation .true.
atom       6.31445046     -0.72910802      2.06229531 Cu
  constrain_relaxation .true.
atom      -3.78866485     -0.72910802      2.06229531 Cu
  constrain_relaxation .true.
atom      -1.26287924     -0.72910802      2.06229531 Cu
  constrain_relaxation .true.
atom       0.00000000      0.00000000      0.00000000 Cu
  constrain_relaxation .true.
atom       2.52578560      0.00000000      0.00000000 Cu
  constrain_relaxation .true.
atom       5.05157121      0.00000000      0.00000000 Cu
  constrain_relaxation .true.
atom      -5.05154410      0.00000000      0.00000000 Cu
  constrain_relaxation .true.
atom      -2.52575849      0.00000000      0.00000000 Cu
  constrain_relaxation .true.
atom      -1.26289280      2.18739450      0.00000000 Cu
  constrain_relaxation .true.
atom       1.26289280      2.18739450      0.00000000 Cu
  constrain_relaxation .true.
atom       3.78867841      2.18739450      0.00000000 Cu
  constrain_relaxation .true.
atom      -6.31443690      2.18739450      0.00000000 Cu
  constrain_relaxation .true.
atom      -3.78865129      2.18739450      0.00000000 Cu
  constrain_relaxation .true.
atom      -2.52578560      4.37478900      0.00000000 Cu
  constrain_relaxation .true.
atom       0.00000000      4.37478900      0.00000000 Cu
  constrain_relaxation .true.
atom       2.52578560      4.37478900      0.00000000 Cu
  constrain_relaxation .true.
atom      -7.57732970      4.37478900      0.00000000 Cu
  constrain_relaxation .true.
atom      -5.05154410      4.37478900      0.00000000 Cu
  constrain_relaxation .true.
atom       2.52577205     -4.37476552      0.00000000 Cu
  constrain_relaxation .true.
atom       5.05155766     -4.37476552      0.00000000 Cu
  constrain_relaxation .true.
atom       7.57734326     -4.37476552      0.00000000 Cu
  constrain_relaxation .true.
atom      -2.52577204     -4.37476552      0.00000000 Cu
  constrain_relaxation .true.
atom       0.00001356     -4.37476552      0.00000000 Cu
  constrain_relaxation .true.
atom       1.26287925     -2.18737102      0.00000000 Cu
  constrain_relaxation .true.
atom       3.78866486     -2.18737102      0.00000000 Cu
  constrain_relaxation .true.
atom       6.31445046     -2.18737102      0.00000000 Cu
  constrain_relaxation .true.
atom      -3.78866485     -2.18737102      0.00000000 Cu
  constrain_relaxation .true.
atom      -1.26287924     -2.18737102      0.00000000 Cu
  constrain_relaxation .true.
